data;
set K:= K1 K2 K3 K4 K5 K6 K7 K8 K9 K10 K11 K12 K13 K14 K15 ;

set F:= F1 F2 F3 ;

set Q:= Q1 Q2 ;

param T:= 45;
param V: 
	K1  K2  K3  K4  K5  K6  K7  K8  K9  K10 K11 K12 K13 K14 K15 :=
Q1	1   1   1   1   1   1   1   1   1   0   0   0   0   0   0   
Q2	0   0   0   0   0   0   0   0   0   1   1   1   1   1   1   
; # if resorce k is of type q

param TF:= 
K1 6
K2 6
K3 6
K4 6
K5 6
K6 6
K7 6
K8 6
K9 6
K10 12
K11 12
K12 12
K13 12
K14 12
K15 12
; # number of continuous time slots resource can fly

param TR:= 
K1 2
K2 2
K3 2
K4 2
K5 2
K6 2
K7 2
K8 2
K9 2
K10 4
K11 4
K12 4
K13 4
K14 4
K15 4
; #  number of continuous time slots resource k needs to rest between flights

param P:= 
K1 36
K2 36
K3 36
K4 36
K5 36
K6 36
K7 36
K8 36
K9 36
K10 36
K11 36
K12 36
K13 36
K14 36
K15 36
; #  number of continuous time slots a pilot can be present including rest times for resource k 

param N:= 
K1 4
K2 4
K3 4
K4 4
K5 4
K6 4
K7 4
K8 4
K9 4
K10 2
K11 2
K12 1
K13 2
K14 2
K15 2
; # max number of flights resource k can fly in the total time period

param A: 
	K1  K2  K3  K4  K5  K6  K7  K8  K9  K10 K11 K12 K13 K14 K15 :=
1	1   1   1   1   1   1   1   1   1   1   1   0   1   1   1   
2	1   1   1   1   1   1   1   1   1   1   1   0   1   1   1   
3	1   1   1   1   1   1   1   1   1   1   1   0   1   1   1   
4	1   1   1   1   1   1   1   1   1   1   1   0   1   1   1   
5	1   1   1   1   1   1   1   1   1   1   1   0   1   1   1   
6	1   1   1   1   1   1   1   1   1   1   1   0   1   1   1   
7	1   1   1   1   1   1   1   1   1   1   1   0   1   1   1   
8	1   1   1   1   1   1   1   1   1   1   1   0   1   1   1   
9	1   1   1   1   1   1   1   1   1   1   1   0   1   1   1   
10	1   1   1   1   1   1   1   1   1   1   1   0   1   1   1   
11	1   1   1   1   1   1   1   1   1   1   1   0   1   1   1   
12	1   1   1   1   1   1   1   1   1   1   1   0   1   1   1   
13	1   1   1   1   1   1   1   1   1   1   1   0   1   1   1   
14	1   1   1   1   1   1   1   1   1   1   1   0   1   1   1   
15	1   1   1   1   1   1   1   1   1   1   1   1   1   1   1   
16	1   1   1   1   1   1   1   1   1   1   1   1   1   1   1   
17	1   1   1   1   1   1   1   1   1   1   1   1   1   1   1   
18	1   1   1   1   1   1   1   1   1   1   1   1   1   1   1   
19	1   1   1   1   1   1   1   1   1   1   1   1   1   1   1   
20	1   1   1   1   1   1   1   1   1   1   1   1   1   1   1   
21	1   1   1   1   1   1   1   1   1   1   1   1   1   1   1   
22	1   1   1   1   1   1   1   1   1   1   1   1   1   1   1   
23	1   1   1   1   1   1   1   1   1   1   1   1   1   1   1   
24	1   1   1   1   1   1   1   1   1   1   1   1   1   1   1   
25	1   1   1   1   1   1   1   1   1   1   1   1   1   1   1   
26	1   1   1   1   1   1   1   1   1   1   1   1   1   1   1   
27	1   1   1   1   1   1   1   1   1   1   1   1   1   1   1   
28	1   1   1   1   1   1   1   1   1   1   1   1   1   1   1   
29	1   1   1   1   1   1   1   1   1   1   1   1   1   1   1   
30	1   1   1   1   1   1   1   1   1   1   1   1   1   1   1   
31	1   1   1   1   1   1   1   1   1   1   1   1   1   1   1   
32	1   1   1   1   1   1   1   1   1   1   1   1   1   1   1   
33	1   1   1   1   1   1   1   1   1   1   1   1   1   1   1   
34	1   1   1   1   1   1   1   1   1   1   1   1   1   1   1   
35	1   1   1   1   1   1   1   1   1   1   1   1   1   1   1   
36	1   1   1   1   1   1   1   1   1   1   1   1   1   1   1   
37	1   1   1   1   1   1   1   1   1   1   1   1   1   1   1   
38	1   1   1   1   1   1   1   1   1   1   1   1   1   1   1   
39	1   1   1   1   1   1   1   1   1   1   1   1   1   1   1   
40	1   1   1   1   1   1   1   1   1   1   1   1   1   1   1   
41	1   1   1   1   1   1   1   1   1   1   1   1   1   1   1   
42	1   1   1   1   1   1   1   1   1   1   1   1   1   1   1   
43	1   1   1   1   1   1   1   1   1   1   1   1   1   1   1   
44	1   1   1   1   1   1   1   1   1   1   1   1   1   1   1   
45	1   1   1   1   1   1   1   1   1   1   1   1   1   1   1   
; # availability of resorce k in time slot t

param B: 
	F1  F2  F3  :=
Q1	0   0   0   
Q2	0   0   0   
; # if front f requires resources of type q

param U: 
	F1  F2  F3  :=
K1	0   0   0   
K2	0   0   0   
K3	0   0   0   
K4	0   0   0   
K5	0   0   0   
K6	0   0   0   
K7	0   0   0   
K8	0   0   0   
K9	0   0   0   
K10	2   2   2   
K11	0   0   0   
K12	2   2   2   
K13	1   1   1   
K14	1   1   1   
K15	2   2   2   
; # transit time of resource

param C:= 
K1 900
K2 900
K3 900
K4 900
K5 900
K6 1500
K7 1500
K8 4500
K9 4500
K10 5500
K11 5500
K12 5500
K13 5500
K14 5500
K15 5500
; #  water capacity of resource k

param S:= 
F1 7
F2 10
F3 8
; # max number of resources that can fly at front f in the same time slot

param D:= 

[*,*,F1 ]:  K1    K2    K3    K4    K5    K6    K7    K8    K9    K10   K11   K12   K13   K14   K15   :=
1           1.95  1.95  1.95  1.95  1.95  1.95  1.95  1.56  1.56  1.17  1.17  1.17  1.17  1.17  1.17  
2           1.95  1.95  1.95  1.95  1.95  1.95  1.95  1.56  1.56  1.17  1.17  1.17  1.17  1.17  1.17  
3           1.95  1.95  1.95  1.95  1.95  1.95  1.95  1.56  1.56  1.17  1.17  1.17  1.17  1.17  1.17  
4           1.95  1.95  1.95  1.95  1.95  1.95  1.95  1.56  1.56  1.17  1.17  1.17  1.17  1.17  1.17  
5           1.95  1.95  1.95  1.95  1.95  1.95  1.95  1.56  1.56  1.17  1.17  1.17  1.17  1.17  1.17  
6           1.95  1.95  1.95  1.95  1.95  1.95  1.95  1.56  1.56  1.17  1.17  1.17  1.17  1.17  1.17  
7           1.95  1.95  1.95  1.95  1.95  1.95  1.95  1.56  1.56  1.17  1.17  1.17  1.17  1.17  1.17  
8           1.95  1.95  1.95  1.95  1.95  1.95  1.95  1.56  1.56  1.17  1.17  1.17  1.17  1.17  1.17  
9           1.95  1.95  1.95  1.95  1.95  1.95  1.95  1.56  1.56  1.17  1.17  1.17  1.17  1.17  1.17  
10          1.95  1.95  1.95  1.95  1.95  1.95  1.95  1.56  1.56  1.17  1.17  1.17  1.17  1.17  1.17  
11          1.95  1.95  1.95  1.95  1.95  1.95  1.95  1.56  1.56  1.17  1.17  1.17  1.17  1.17  1.17  
12          1.95  1.95  1.95  1.95  1.95  1.95  1.95  1.56  1.56  1.17  1.17  1.17  1.17  1.17  1.17  
13          1.95  1.95  1.95  1.95  1.95  1.95  1.95  1.56  1.56  1.17  1.17  1.17  1.17  1.17  1.17  
14          1.95  1.95  1.95  1.95  1.95  1.95  1.95  1.56  1.56  1.17  1.17  1.17  1.17  1.17  1.17  
15          1.95  1.95  1.95  1.95  1.95  1.95  1.95  1.56  1.56  1.17  1.17  1.17  1.17  1.17  1.17  
16          1.95  1.95  1.95  1.95  1.95  1.95  1.95  1.56  1.56  1.17  1.17  1.17  1.17  1.17  1.17  
17          1.95  1.95  1.95  1.95  1.95  1.95  1.95  1.56  1.56  1.17  1.17  1.17  1.17  1.17  1.17  
18          1.95  1.95  1.95  1.95  1.95  1.95  1.95  1.56  1.56  1.17  1.17  1.17  1.17  1.17  1.17  
19          1.95  1.95  1.95  1.95  1.95  1.95  1.95  1.56  1.56  1.17  1.17  1.17  1.17  1.17  1.17  
20          1.95  1.95  1.95  1.95  1.95  1.95  1.95  1.56  1.56  1.17  1.17  1.17  1.17  1.17  1.17  
21          1.95  1.95  1.95  1.95  1.95  1.95  1.95  1.56  1.56  1.17  1.17  1.17  1.17  1.17  1.17  
22          1.95  1.95  1.95  1.95  1.95  1.95  1.95  1.56  1.56  1.17  1.17  1.17  1.17  1.17  1.17  
23          1.95  1.95  1.95  1.95  1.95  1.95  1.95  1.56  1.56  1.17  1.17  1.17  1.17  1.17  1.17  
24          1.95  1.95  1.95  1.95  1.95  1.95  1.95  1.56  1.56  1.17  1.17  1.17  1.17  1.17  1.17  
25          1.86  1.86  1.86  1.86  1.86  1.86  1.86  1.48  1.48  1.11  1.11  1.11  1.11  1.11  1.11  
26          1.86  1.86  1.86  1.86  1.86  1.86  1.86  1.48  1.48  1.11  1.11  1.11  1.11  1.11  1.11  
27          1.86  1.86  1.86  1.86  1.86  1.86  1.86  1.48  1.48  1.11  1.11  1.11  1.11  1.11  1.11  
28          1.86  1.86  1.86  1.86  1.86  1.86  1.86  1.48  1.48  1.11  1.11  1.11  1.11  1.11  1.11  
29          1.86  1.86  1.86  1.86  1.86  1.86  1.86  1.48  1.48  1.11  1.11  1.11  1.11  1.11  1.11  
30          1.86  1.86  1.86  1.86  1.86  1.86  1.86  1.48  1.48  1.11  1.11  1.11  1.11  1.11  1.11  
31          1.86  1.86  1.86  1.86  1.86  1.86  1.86  1.48  1.48  1.11  1.11  1.11  1.11  1.11  1.11  
32          1.86  1.86  1.86  1.86  1.86  1.86  1.86  1.48  1.48  1.11  1.11  1.11  1.11  1.11  1.11  
33          1.86  1.86  1.86  1.86  1.86  1.86  1.86  1.48  1.48  1.11  1.11  1.11  1.11  1.11  1.11  
34          1.95  1.95  1.95  1.95  1.95  1.95  1.95  1.56  1.56  1.17  1.17  1.17  1.17  1.17  1.17  
35          1.95  1.95  1.95  1.95  1.95  1.95  1.95  1.56  1.56  1.17  1.17  1.17  1.17  1.17  1.17  
36          1.95  1.95  1.95  1.95  1.95  1.95  1.95  1.56  1.56  1.17  1.17  1.17  1.17  1.17  1.17  
37          1.95  1.95  1.95  1.95  1.95  1.95  1.95  1.56  1.56  1.17  1.17  1.17  1.17  1.17  1.17  
38          1.95  1.95  1.95  1.95  1.95  1.95  1.95  1.56  1.56  1.17  1.17  1.17  1.17  1.17  1.17  
39          1.95  1.95  1.95  1.95  1.95  1.95  1.95  1.56  1.56  1.17  1.17  1.17  1.17  1.17  1.17  
40          1.95  1.95  1.95  1.95  1.95  1.95  1.95  1.56  1.56  1.17  1.17  1.17  1.17  1.17  1.17  
41          1.95  1.95  1.95  1.95  1.95  1.95  1.95  1.56  1.56  1.17  1.17  1.17  1.17  1.17  1.17  
42          1.95  1.95  1.95  1.95  1.95  1.95  1.95  1.56  1.56  1.17  1.17  1.17  1.17  1.17  1.17  
43          1.95  1.95  1.95  1.95  1.95  1.95  1.95  1.56  1.56  1.17  1.17  1.17  1.17  1.17  1.17  
44          1.95  1.95  1.95  1.95  1.95  1.95  1.95  1.56  1.56  1.17  1.17  1.17  1.17  1.17  1.17  
45          1.95  1.95  1.95  1.95  1.95  1.95  1.95  1.56  1.56  1.17  1.17  1.17  1.17  1.17  1.17  

[*,*,F2 ]:  K1    K2    K3    K4    K5    K6    K7    K8    K9    K10   K11   K12   K13   K14   K15   :=
1           2.00  2.00  2.00  2.00  2.00  2.00  2.00  1.60  1.60  1.20  1.20  1.20  1.20  1.20  1.20  
2           2.00  2.00  2.00  2.00  2.00  2.00  2.00  1.60  1.60  1.20  1.20  1.20  1.20  1.20  1.20  
3           2.00  2.00  2.00  2.00  2.00  2.00  2.00  1.60  1.60  1.20  1.20  1.20  1.20  1.20  1.20  
4           2.00  2.00  2.00  2.00  2.00  2.00  2.00  1.60  1.60  1.20  1.20  1.20  1.20  1.20  1.20  
5           2.00  2.00  2.00  2.00  2.00  2.00  2.00  1.60  1.60  1.20  1.20  1.20  1.20  1.20  1.20  
6           2.00  2.00  2.00  2.00  2.00  2.00  2.00  1.60  1.60  1.20  1.20  1.20  1.20  1.20  1.20  
7           2.00  2.00  2.00  2.00  2.00  2.00  2.00  1.60  1.60  1.20  1.20  1.20  1.20  1.20  1.20  
8           2.00  2.00  2.00  2.00  2.00  2.00  2.00  1.60  1.60  1.20  1.20  1.20  1.20  1.20  1.20  
9           2.00  2.00  2.00  2.00  2.00  2.00  2.00  1.60  1.60  1.20  1.20  1.20  1.20  1.20  1.20  
10          2.00  2.00  2.00  2.00  2.00  2.00  2.00  1.60  1.60  1.20  1.20  1.20  1.20  1.20  1.20  
11          2.00  2.00  2.00  2.00  2.00  2.00  2.00  1.60  1.60  1.20  1.20  1.20  1.20  1.20  1.20  
12          2.00  2.00  2.00  2.00  2.00  2.00  2.00  1.60  1.60  1.20  1.20  1.20  1.20  1.20  1.20  
13          2.00  2.00  2.00  2.00  2.00  2.00  2.00  1.60  1.60  1.20  1.20  1.20  1.20  1.20  1.20  
14          2.00  2.00  2.00  2.00  2.00  2.00  2.00  1.60  1.60  1.20  1.20  1.20  1.20  1.20  1.20  
15          2.00  2.00  2.00  2.00  2.00  2.00  2.00  1.60  1.60  1.20  1.20  1.20  1.20  1.20  1.20  
16          2.00  2.00  2.00  2.00  2.00  2.00  2.00  1.60  1.60  1.20  1.20  1.20  1.20  1.20  1.20  
17          2.00  2.00  2.00  2.00  2.00  2.00  2.00  1.60  1.60  1.20  1.20  1.20  1.20  1.20  1.20  
18          2.00  2.00  2.00  2.00  2.00  2.00  2.00  1.60  1.60  1.20  1.20  1.20  1.20  1.20  1.20  
19          2.00  2.00  2.00  2.00  2.00  2.00  2.00  1.60  1.60  1.20  1.20  1.20  1.20  1.20  1.20  
20          2.00  2.00  2.00  2.00  2.00  2.00  2.00  1.60  1.60  1.20  1.20  1.20  1.20  1.20  1.20  
21          2.00  2.00  2.00  2.00  2.00  2.00  2.00  1.60  1.60  1.20  1.20  1.20  1.20  1.20  1.20  
22          2.00  2.00  2.00  2.00  2.00  2.00  2.00  1.60  1.60  1.20  1.20  1.20  1.20  1.20  1.20  
23          2.00  2.00  2.00  2.00  2.00  2.00  2.00  1.60  1.60  1.20  1.20  1.20  1.20  1.20  1.20  
24          2.00  2.00  2.00  2.00  2.00  2.00  2.00  1.60  1.60  1.20  1.20  1.20  1.20  1.20  1.20  
25          1.90  1.90  1.90  1.90  1.90  1.90  1.90  1.52  1.52  1.14  1.14  1.14  1.14  1.14  1.14  
26          1.90  1.90  1.90  1.90  1.90  1.90  1.90  1.52  1.52  1.14  1.14  1.14  1.14  1.14  1.14  
27          1.90  1.90  1.90  1.90  1.90  1.90  1.90  1.52  1.52  1.14  1.14  1.14  1.14  1.14  1.14  
28          1.90  1.90  1.90  1.90  1.90  1.90  1.90  1.52  1.52  1.14  1.14  1.14  1.14  1.14  1.14  
29          1.90  1.90  1.90  1.90  1.90  1.90  1.90  1.52  1.52  1.14  1.14  1.14  1.14  1.14  1.14  
30          1.90  1.90  1.90  1.90  1.90  1.90  1.90  1.52  1.52  1.14  1.14  1.14  1.14  1.14  1.14  
31          1.90  1.90  1.90  1.90  1.90  1.90  1.90  1.52  1.52  1.14  1.14  1.14  1.14  1.14  1.14  
32          1.90  1.90  1.90  1.90  1.90  1.90  1.90  1.52  1.52  1.14  1.14  1.14  1.14  1.14  1.14  
33          1.90  1.90  1.90  1.90  1.90  1.90  1.90  1.52  1.52  1.14  1.14  1.14  1.14  1.14  1.14  
34          2.00  2.00  2.00  2.00  2.00  2.00  2.00  1.60  1.60  1.20  1.20  1.20  1.20  1.20  1.20  
35          2.00  2.00  2.00  2.00  2.00  2.00  2.00  1.60  1.60  1.20  1.20  1.20  1.20  1.20  1.20  
36          2.00  2.00  2.00  2.00  2.00  2.00  2.00  1.60  1.60  1.20  1.20  1.20  1.20  1.20  1.20  
37          2.00  2.00  2.00  2.00  2.00  2.00  2.00  1.60  1.60  1.20  1.20  1.20  1.20  1.20  1.20  
38          2.00  2.00  2.00  2.00  2.00  2.00  2.00  1.60  1.60  1.20  1.20  1.20  1.20  1.20  1.20  
39          2.00  2.00  2.00  2.00  2.00  2.00  2.00  1.60  1.60  1.20  1.20  1.20  1.20  1.20  1.20  
40          2.00  2.00  2.00  2.00  2.00  2.00  2.00  1.60  1.60  1.20  1.20  1.20  1.20  1.20  1.20  
41          2.00  2.00  2.00  2.00  2.00  2.00  2.00  1.60  1.60  1.20  1.20  1.20  1.20  1.20  1.20  
42          2.00  2.00  2.00  2.00  2.00  2.00  2.00  1.60  1.60  1.20  1.20  1.20  1.20  1.20  1.20  
43          2.00  2.00  2.00  2.00  2.00  2.00  2.00  1.60  1.60  1.20  1.20  1.20  1.20  1.20  1.20  
44          2.00  2.00  2.00  2.00  2.00  2.00  2.00  1.60  1.60  1.20  1.20  1.20  1.20  1.20  1.20  
45          2.00  2.00  2.00  2.00  2.00  2.00  2.00  1.60  1.60  1.20  1.20  1.20  1.20  1.20  1.20  

[*,*,F3 ]:  K1    K2    K3    K4    K5    K6    K7    K8    K9    K10   K11   K12   K13   K14   K15   :=
1           1.40  1.40  1.40  1.40  1.40  1.40  1.40  1.12  1.12  0.84  0.84  0.84  0.84  0.84  0.84  
2           1.40  1.40  1.40  1.40  1.40  1.40  1.40  1.12  1.12  0.84  0.84  0.84  0.84  0.84  0.84  
3           1.40  1.40  1.40  1.40  1.40  1.40  1.40  1.12  1.12  0.84  0.84  0.84  0.84  0.84  0.84  
4           1.40  1.40  1.40  1.40  1.40  1.40  1.40  1.12  1.12  0.84  0.84  0.84  0.84  0.84  0.84  
5           1.40  1.40  1.40  1.40  1.40  1.40  1.40  1.12  1.12  0.84  0.84  0.84  0.84  0.84  0.84  
6           1.40  1.40  1.40  1.40  1.40  1.40  1.40  1.12  1.12  0.84  0.84  0.84  0.84  0.84  0.84  
7           1.40  1.40  1.40  1.40  1.40  1.40  1.40  1.12  1.12  0.84  0.84  0.84  0.84  0.84  0.84  
8           1.40  1.40  1.40  1.40  1.40  1.40  1.40  1.12  1.12  0.84  0.84  0.84  0.84  0.84  0.84  
9           1.40  1.40  1.40  1.40  1.40  1.40  1.40  1.12  1.12  0.84  0.84  0.84  0.84  0.84  0.84  
10          1.40  1.40  1.40  1.40  1.40  1.40  1.40  1.12  1.12  0.84  0.84  0.84  0.84  0.84  0.84  
11          1.40  1.40  1.40  1.40  1.40  1.40  1.40  1.12  1.12  0.84  0.84  0.84  0.84  0.84  0.84  
12          1.40  1.40  1.40  1.40  1.40  1.40  1.40  1.12  1.12  0.84  0.84  0.84  0.84  0.84  0.84  
13          1.40  1.40  1.40  1.40  1.40  1.40  1.40  1.12  1.12  0.84  0.84  0.84  0.84  0.84  0.84  
14          1.40  1.40  1.40  1.40  1.40  1.40  1.40  1.12  1.12  0.84  0.84  0.84  0.84  0.84  0.84  
15          1.40  1.40  1.40  1.40  1.40  1.40  1.40  1.12  1.12  0.84  0.84  0.84  0.84  0.84  0.84  
16          1.40  1.40  1.40  1.40  1.40  1.40  1.40  1.12  1.12  0.84  0.84  0.84  0.84  0.84  0.84  
17          1.40  1.40  1.40  1.40  1.40  1.40  1.40  1.12  1.12  0.84  0.84  0.84  0.84  0.84  0.84  
18          1.40  1.40  1.40  1.40  1.40  1.40  1.40  1.12  1.12  0.84  0.84  0.84  0.84  0.84  0.84  
19          1.40  1.40  1.40  1.40  1.40  1.40  1.40  1.12  1.12  0.84  0.84  0.84  0.84  0.84  0.84  
20          1.40  1.40  1.40  1.40  1.40  1.40  1.40  1.12  1.12  0.84  0.84  0.84  0.84  0.84  0.84  
21          1.40  1.40  1.40  1.40  1.40  1.40  1.40  1.12  1.12  0.84  0.84  0.84  0.84  0.84  0.84  
22          1.40  1.40  1.40  1.40  1.40  1.40  1.40  1.12  1.12  0.84  0.84  0.84  0.84  0.84  0.84  
23          1.40  1.40  1.40  1.40  1.40  1.40  1.40  1.12  1.12  0.84  0.84  0.84  0.84  0.84  0.84  
24          1.40  1.40  1.40  1.40  1.40  1.40  1.40  1.12  1.12  0.84  0.84  0.84  0.84  0.84  0.84  
25          1.33  1.33  1.33  1.33  1.33  1.33  1.33  1.06  1.06  0.80  0.80  0.80  0.80  0.80  0.80  
26          1.33  1.33  1.33  1.33  1.33  1.33  1.33  1.06  1.06  0.80  0.80  0.80  0.80  0.80  0.80  
27          1.33  1.33  1.33  1.33  1.33  1.33  1.33  1.06  1.06  0.80  0.80  0.80  0.80  0.80  0.80  
28          1.33  1.33  1.33  1.33  1.33  1.33  1.33  1.06  1.06  0.80  0.80  0.80  0.80  0.80  0.80  
29          1.33  1.33  1.33  1.33  1.33  1.33  1.33  1.06  1.06  0.80  0.80  0.80  0.80  0.80  0.80  
30          1.33  1.33  1.33  1.33  1.33  1.33  1.33  1.06  1.06  0.80  0.80  0.80  0.80  0.80  0.80  
31          1.33  1.33  1.33  1.33  1.33  1.33  1.33  1.06  1.06  0.80  0.80  0.80  0.80  0.80  0.80  
32          1.33  1.33  1.33  1.33  1.33  1.33  1.33  1.06  1.06  0.80  0.80  0.80  0.80  0.80  0.80  
33          1.33  1.33  1.33  1.33  1.33  1.33  1.33  1.06  1.06  0.80  0.80  0.80  0.80  0.80  0.80  
34          1.40  1.40  1.40  1.40  1.40  1.40  1.40  1.12  1.12  0.84  0.84  0.84  0.84  0.84  0.84  
35          1.40  1.40  1.40  1.40  1.40  1.40  1.40  1.12  1.12  0.84  0.84  0.84  0.84  0.84  0.84  
36          1.40  1.40  1.40  1.40  1.40  1.40  1.40  1.12  1.12  0.84  0.84  0.84  0.84  0.84  0.84  
37          1.40  1.40  1.40  1.40  1.40  1.40  1.40  1.12  1.12  0.84  0.84  0.84  0.84  0.84  0.84  
38          1.40  1.40  1.40  1.40  1.40  1.40  1.40  1.12  1.12  0.84  0.84  0.84  0.84  0.84  0.84  
39          1.40  1.40  1.40  1.40  1.40  1.40  1.40  1.12  1.12  0.84  0.84  0.84  0.84  0.84  0.84  
40          1.40  1.40  1.40  1.40  1.40  1.40  1.40  1.12  1.12  0.84  0.84  0.84  0.84  0.84  0.84  
41          1.40  1.40  1.40  1.40  1.40  1.40  1.40  1.12  1.12  0.84  0.84  0.84  0.84  0.84  0.84  
42          1.40  1.40  1.40  1.40  1.40  1.40  1.40  1.12  1.12  0.84  0.84  0.84  0.84  0.84  0.84  
43          1.40  1.40  1.40  1.40  1.40  1.40  1.40  1.12  1.12  0.84  0.84  0.84  0.84  0.84  0.84  
44          1.40  1.40  1.40  1.40  1.40  1.40  1.40  1.12  1.12  0.84  0.84  0.84  0.84  0.84  0.84  
45          1.40  1.40  1.40  1.40  1.40  1.40  1.40  1.12  1.12  0.84  0.84  0.84  0.84  0.84  0.84  
; # downloads resource k can do at front f in time t if intermediate time slot

param E:= 

[*,*,F1 ]:  K1    K2    K3    K4    K5    K6    K7    K8    K9    K10   K11   K12   K13   K14   K15   :=
1           0.92  0.53  0.80  0.59  0.82  0.47  0.80  0.03  0.54  0.26  0.28  0.15  0.07  0.37  0.04  
2           0.92  0.53  0.80  0.59  0.82  0.47  0.80  0.03  0.54  0.26  0.28  0.15  0.07  0.37  0.04  
3           0.92  0.53  0.80  0.59  0.82  0.47  0.80  0.03  0.54  0.26  0.28  0.15  0.07  0.37  0.04  
4           0.92  0.53  0.80  0.59  0.82  0.47  0.80  0.03  0.54  0.26  0.28  0.15  0.07  0.37  0.04  
5           0.92  0.53  0.80  0.59  0.82  0.47  0.80  0.03  0.54  0.26  0.28  0.15  0.07  0.37  0.04  
6           0.92  0.53  0.80  0.59  0.82  0.47  0.80  0.03  0.54  0.26  0.28  0.15  0.07  0.37  0.04  
7           0.92  0.53  0.80  0.59  0.82  0.47  0.80  0.03  0.54  0.26  0.28  0.15  0.07  0.37  0.04  
8           0.92  0.53  0.80  0.59  0.82  0.47  0.80  0.03  0.54  0.26  0.28  0.15  0.07  0.37  0.04  
9           0.92  0.53  0.80  0.59  0.82  0.47  0.80  0.03  0.54  0.26  0.28  0.15  0.07  0.37  0.04  
10          0.92  0.53  0.80  0.59  0.82  0.47  0.80  0.03  0.54  0.26  0.28  0.15  0.07  0.37  0.04  
11          0.92  0.53  0.80  0.59  0.82  0.47  0.80  0.03  0.54  0.26  0.28  0.15  0.07  0.37  0.04  
12          0.92  0.53  0.80  0.59  0.82  0.47  0.80  0.03  0.54  0.26  0.28  0.15  0.07  0.37  0.04  
13          0.92  0.53  0.80  0.59  0.82  0.47  0.80  0.03  0.54  0.26  0.28  0.15  0.07  0.37  0.04  
14          0.92  0.53  0.80  0.59  0.82  0.47  0.80  0.03  0.54  0.26  0.28  0.15  0.07  0.37  0.04  
15          0.92  0.53  0.80  0.59  0.82  0.47  0.80  0.03  0.54  0.26  0.28  0.15  0.07  0.37  0.04  
16          0.92  0.53  0.80  0.59  0.82  0.47  0.80  0.03  0.54  0.26  0.28  0.15  0.07  0.37  0.04  
17          0.92  0.53  0.80  0.59  0.82  0.47  0.80  0.03  0.54  0.26  0.28  0.15  0.07  0.37  0.04  
18          0.92  0.53  0.80  0.59  0.82  0.47  0.80  0.03  0.54  0.26  0.28  0.15  0.07  0.37  0.04  
19          0.92  0.53  0.80  0.59  0.82  0.47  0.80  0.03  0.54  0.26  0.28  0.15  0.07  0.37  0.04  
20          0.92  0.53  0.80  0.59  0.82  0.47  0.80  0.03  0.54  0.26  0.28  0.15  0.07  0.37  0.04  
21          0.92  0.53  0.80  0.59  0.82  0.47  0.80  0.03  0.54  0.26  0.28  0.15  0.07  0.37  0.04  
22          0.92  0.53  0.80  0.59  0.82  0.47  0.80  0.03  0.54  0.26  0.28  0.15  0.07  0.37  0.04  
23          0.92  0.53  0.80  0.59  0.82  0.47  0.80  0.03  0.54  0.26  0.28  0.15  0.07  0.37  0.04  
24          0.92  0.53  0.80  0.59  0.82  0.47  0.80  0.03  0.54  0.26  0.28  0.15  0.07  0.37  0.04  
25          0.87  0.50  0.76  0.56  0.78  0.45  0.76  0.03  0.52  0.24  0.27  0.14  0.07  0.36  0.03  
26          0.87  0.50  0.76  0.56  0.78  0.45  0.76  0.03  0.52  0.24  0.27  0.14  0.07  0.36  0.03  
27          0.87  0.50  0.76  0.56  0.78  0.45  0.76  0.03  0.52  0.24  0.27  0.14  0.07  0.36  0.03  
28          0.87  0.50  0.76  0.56  0.78  0.45  0.76  0.03  0.52  0.24  0.27  0.14  0.07  0.36  0.03  
29          0.87  0.50  0.76  0.56  0.78  0.45  0.76  0.03  0.52  0.24  0.27  0.14  0.07  0.36  0.03  
30          0.87  0.50  0.76  0.56  0.78  0.45  0.76  0.03  0.52  0.24  0.27  0.14  0.07  0.36  0.03  
31          0.87  0.50  0.76  0.56  0.78  0.45  0.76  0.03  0.52  0.24  0.27  0.14  0.07  0.36  0.03  
32          0.87  0.50  0.76  0.56  0.78  0.45  0.76  0.03  0.52  0.24  0.27  0.14  0.07  0.36  0.03  
33          0.87  0.50  0.76  0.56  0.78  0.45  0.76  0.03  0.52  0.24  0.27  0.14  0.07  0.36  0.03  
34          0.92  0.53  0.80  0.59  0.82  0.47  0.80  0.03  0.54  0.26  0.28  0.15  0.07  0.37  0.04  
35          0.92  0.53  0.80  0.59  0.82  0.47  0.80  0.03  0.54  0.26  0.28  0.15  0.07  0.37  0.04  
36          0.92  0.53  0.80  0.59  0.82  0.47  0.80  0.03  0.54  0.26  0.28  0.15  0.07  0.37  0.04  
37          0.92  0.53  0.80  0.59  0.82  0.47  0.80  0.03  0.54  0.26  0.28  0.15  0.07  0.37  0.04  
38          0.92  0.53  0.80  0.59  0.82  0.47  0.80  0.03  0.54  0.26  0.28  0.15  0.07  0.37  0.04  
39          0.92  0.53  0.80  0.59  0.82  0.47  0.80  0.03  0.54  0.26  0.28  0.15  0.07  0.37  0.04  
40          0.92  0.53  0.80  0.59  0.82  0.47  0.80  0.03  0.54  0.26  0.28  0.15  0.07  0.37  0.04  
41          0.92  0.53  0.80  0.59  0.82  0.47  0.80  0.03  0.54  0.26  0.28  0.15  0.07  0.37  0.04  
42          0.92  0.53  0.80  0.59  0.82  0.47  0.80  0.03  0.54  0.26  0.28  0.15  0.07  0.37  0.04  
43          0.92  0.53  0.80  0.59  0.82  0.47  0.80  0.03  0.54  0.26  0.28  0.15  0.07  0.37  0.04  
44          0.92  0.53  0.80  0.59  0.82  0.47  0.80  0.03  0.54  0.26  0.28  0.15  0.07  0.37  0.04  
45          0.92  0.53  0.80  0.59  0.82  0.47  0.80  0.03  0.54  0.26  0.28  0.15  0.07  0.37  0.04  

[*,*,F2 ]:  K1    K2    K3    K4    K5    K6    K7    K8    K9    K10   K11   K12   K13   K14   K15   :=
1           0.74  0.44  0.70  0.58  0.70  0.58  0.78  0.03  0.57  0.22  0.30  0.18  0.10  0.37  0.06  
2           0.74  0.44  0.70  0.58  0.70  0.58  0.78  0.03  0.57  0.22  0.30  0.18  0.10  0.37  0.06  
3           0.74  0.44  0.70  0.58  0.70  0.58  0.78  0.03  0.57  0.22  0.30  0.18  0.10  0.37  0.06  
4           0.74  0.44  0.70  0.58  0.70  0.58  0.78  0.03  0.57  0.22  0.30  0.18  0.10  0.37  0.06  
5           0.74  0.44  0.70  0.58  0.70  0.58  0.78  0.03  0.57  0.22  0.30  0.18  0.10  0.37  0.06  
6           0.74  0.44  0.70  0.58  0.70  0.58  0.78  0.03  0.57  0.22  0.30  0.18  0.10  0.37  0.06  
7           0.74  0.44  0.70  0.58  0.70  0.58  0.78  0.03  0.57  0.22  0.30  0.18  0.10  0.37  0.06  
8           0.74  0.44  0.70  0.58  0.70  0.58  0.78  0.03  0.57  0.22  0.30  0.18  0.10  0.37  0.06  
9           0.74  0.44  0.70  0.58  0.70  0.58  0.78  0.03  0.57  0.22  0.30  0.18  0.10  0.37  0.06  
10          0.74  0.44  0.70  0.58  0.70  0.58  0.78  0.03  0.57  0.22  0.30  0.18  0.10  0.37  0.06  
11          0.74  0.44  0.70  0.58  0.70  0.58  0.78  0.03  0.57  0.22  0.30  0.18  0.10  0.37  0.06  
12          0.74  0.44  0.70  0.58  0.70  0.58  0.78  0.03  0.57  0.22  0.30  0.18  0.10  0.37  0.06  
13          0.74  0.44  0.70  0.58  0.70  0.58  0.78  0.03  0.57  0.22  0.30  0.18  0.10  0.37  0.06  
14          0.74  0.44  0.70  0.58  0.70  0.58  0.78  0.03  0.57  0.22  0.30  0.18  0.10  0.37  0.06  
15          0.74  0.44  0.70  0.58  0.70  0.58  0.78  0.03  0.57  0.22  0.30  0.18  0.10  0.37  0.06  
16          0.74  0.44  0.70  0.58  0.70  0.58  0.78  0.03  0.57  0.22  0.30  0.18  0.10  0.37  0.06  
17          0.74  0.44  0.70  0.58  0.70  0.58  0.78  0.03  0.57  0.22  0.30  0.18  0.10  0.37  0.06  
18          0.74  0.44  0.70  0.58  0.70  0.58  0.78  0.03  0.57  0.22  0.30  0.18  0.10  0.37  0.06  
19          0.74  0.44  0.70  0.58  0.70  0.58  0.78  0.03  0.57  0.22  0.30  0.18  0.10  0.37  0.06  
20          0.74  0.44  0.70  0.58  0.70  0.58  0.78  0.03  0.57  0.22  0.30  0.18  0.10  0.37  0.06  
21          0.74  0.44  0.70  0.58  0.70  0.58  0.78  0.03  0.57  0.22  0.30  0.18  0.10  0.37  0.06  
22          0.74  0.44  0.70  0.58  0.70  0.58  0.78  0.03  0.57  0.22  0.30  0.18  0.10  0.37  0.06  
23          0.74  0.44  0.70  0.58  0.70  0.58  0.78  0.03  0.57  0.22  0.30  0.18  0.10  0.37  0.06  
24          0.74  0.44  0.70  0.58  0.70  0.58  0.78  0.03  0.57  0.22  0.30  0.18  0.10  0.37  0.06  
25          0.70  0.42  0.67  0.55  0.67  0.55  0.74  0.03  0.55  0.21  0.29  0.17  0.09  0.35  0.06  
26          0.70  0.42  0.67  0.55  0.67  0.55  0.74  0.03  0.55  0.21  0.29  0.17  0.09  0.35  0.06  
27          0.70  0.42  0.67  0.55  0.67  0.55  0.74  0.03  0.55  0.21  0.29  0.17  0.09  0.35  0.06  
28          0.70  0.42  0.67  0.55  0.67  0.55  0.74  0.03  0.55  0.21  0.29  0.17  0.09  0.35  0.06  
29          0.70  0.42  0.67  0.55  0.67  0.55  0.74  0.03  0.55  0.21  0.29  0.17  0.09  0.35  0.06  
30          0.70  0.42  0.67  0.55  0.67  0.55  0.74  0.03  0.55  0.21  0.29  0.17  0.09  0.35  0.06  
31          0.70  0.42  0.67  0.55  0.67  0.55  0.74  0.03  0.55  0.21  0.29  0.17  0.09  0.35  0.06  
32          0.70  0.42  0.67  0.55  0.67  0.55  0.74  0.03  0.55  0.21  0.29  0.17  0.09  0.35  0.06  
33          0.70  0.42  0.67  0.55  0.67  0.55  0.74  0.03  0.55  0.21  0.29  0.17  0.09  0.35  0.06  
34          0.74  0.44  0.70  0.58  0.70  0.58  0.78  0.03  0.57  0.22  0.30  0.18  0.10  0.37  0.06  
35          0.74  0.44  0.70  0.58  0.70  0.58  0.78  0.03  0.57  0.22  0.30  0.18  0.10  0.37  0.06  
36          0.74  0.44  0.70  0.58  0.70  0.58  0.78  0.03  0.57  0.22  0.30  0.18  0.10  0.37  0.06  
37          0.74  0.44  0.70  0.58  0.70  0.58  0.78  0.03  0.57  0.22  0.30  0.18  0.10  0.37  0.06  
38          0.74  0.44  0.70  0.58  0.70  0.58  0.78  0.03  0.57  0.22  0.30  0.18  0.10  0.37  0.06  
39          0.74  0.44  0.70  0.58  0.70  0.58  0.78  0.03  0.57  0.22  0.30  0.18  0.10  0.37  0.06  
40          0.74  0.44  0.70  0.58  0.70  0.58  0.78  0.03  0.57  0.22  0.30  0.18  0.10  0.37  0.06  
41          0.74  0.44  0.70  0.58  0.70  0.58  0.78  0.03  0.57  0.22  0.30  0.18  0.10  0.37  0.06  
42          0.74  0.44  0.70  0.58  0.70  0.58  0.78  0.03  0.57  0.22  0.30  0.18  0.10  0.37  0.06  
43          0.74  0.44  0.70  0.58  0.70  0.58  0.78  0.03  0.57  0.22  0.30  0.18  0.10  0.37  0.06  
44          0.74  0.44  0.70  0.58  0.70  0.58  0.78  0.03  0.57  0.22  0.30  0.18  0.10  0.37  0.06  
45          0.74  0.44  0.70  0.58  0.70  0.58  0.78  0.03  0.57  0.22  0.30  0.18  0.10  0.37  0.06  

[*,*,F3 ]:  K1    K2    K3    K4    K5    K6    K7    K8    K9    K10   K11   K12   K13   K14   K15   :=
1           0.66  0.41  0.55  0.29  0.52  0.38  0.63  0.06  0.42  0.22  0.20  0.11  0.08  0.24  0.07  
2           0.66  0.41  0.55  0.29  0.52  0.38  0.63  0.06  0.42  0.22  0.20  0.11  0.08  0.24  0.07  
3           0.66  0.41  0.55  0.29  0.52  0.38  0.63  0.06  0.42  0.22  0.20  0.11  0.08  0.24  0.07  
4           0.66  0.41  0.55  0.29  0.52  0.38  0.63  0.06  0.42  0.22  0.20  0.11  0.08  0.24  0.07  
5           0.66  0.41  0.55  0.29  0.52  0.38  0.63  0.06  0.42  0.22  0.20  0.11  0.08  0.24  0.07  
6           0.66  0.41  0.55  0.29  0.52  0.38  0.63  0.06  0.42  0.22  0.20  0.11  0.08  0.24  0.07  
7           0.66  0.41  0.55  0.29  0.52  0.38  0.63  0.06  0.42  0.22  0.20  0.11  0.08  0.24  0.07  
8           0.66  0.41  0.55  0.29  0.52  0.38  0.63  0.06  0.42  0.22  0.20  0.11  0.08  0.24  0.07  
9           0.66  0.41  0.55  0.29  0.52  0.38  0.63  0.06  0.42  0.22  0.20  0.11  0.08  0.24  0.07  
10          0.66  0.41  0.55  0.29  0.52  0.38  0.63  0.06  0.42  0.22  0.20  0.11  0.08  0.24  0.07  
11          0.66  0.41  0.55  0.29  0.52  0.38  0.63  0.06  0.42  0.22  0.20  0.11  0.08  0.24  0.07  
12          0.66  0.41  0.55  0.29  0.52  0.38  0.63  0.06  0.42  0.22  0.20  0.11  0.08  0.24  0.07  
13          0.66  0.41  0.55  0.29  0.52  0.38  0.63  0.06  0.42  0.22  0.20  0.11  0.08  0.24  0.07  
14          0.66  0.41  0.55  0.29  0.52  0.38  0.63  0.06  0.42  0.22  0.20  0.11  0.08  0.24  0.07  
15          0.66  0.41  0.55  0.29  0.52  0.38  0.63  0.06  0.42  0.22  0.20  0.11  0.08  0.24  0.07  
16          0.66  0.41  0.55  0.29  0.52  0.38  0.63  0.06  0.42  0.22  0.20  0.11  0.08  0.24  0.07  
17          0.66  0.41  0.55  0.29  0.52  0.38  0.63  0.06  0.42  0.22  0.20  0.11  0.08  0.24  0.07  
18          0.66  0.41  0.55  0.29  0.52  0.38  0.63  0.06  0.42  0.22  0.20  0.11  0.08  0.24  0.07  
19          0.66  0.41  0.55  0.29  0.52  0.38  0.63  0.06  0.42  0.22  0.20  0.11  0.08  0.24  0.07  
20          0.66  0.41  0.55  0.29  0.52  0.38  0.63  0.06  0.42  0.22  0.20  0.11  0.08  0.24  0.07  
21          0.66  0.41  0.55  0.29  0.52  0.38  0.63  0.06  0.42  0.22  0.20  0.11  0.08  0.24  0.07  
22          0.66  0.41  0.55  0.29  0.52  0.38  0.63  0.06  0.42  0.22  0.20  0.11  0.08  0.24  0.07  
23          0.66  0.41  0.55  0.29  0.52  0.38  0.63  0.06  0.42  0.22  0.20  0.11  0.08  0.24  0.07  
24          0.66  0.41  0.55  0.29  0.52  0.38  0.63  0.06  0.42  0.22  0.20  0.11  0.08  0.24  0.07  
25          0.63  0.39  0.52  0.28  0.49  0.36  0.60  0.05  0.40  0.21  0.19  0.10  0.08  0.23  0.06  
26          0.63  0.39  0.52  0.28  0.49  0.36  0.60  0.05  0.40  0.21  0.19  0.10  0.08  0.23  0.06  
27          0.63  0.39  0.52  0.28  0.49  0.36  0.60  0.05  0.40  0.21  0.19  0.10  0.08  0.23  0.06  
28          0.63  0.39  0.52  0.28  0.49  0.36  0.60  0.05  0.40  0.21  0.19  0.10  0.08  0.23  0.06  
29          0.63  0.39  0.52  0.28  0.49  0.36  0.60  0.05  0.40  0.21  0.19  0.10  0.08  0.23  0.06  
30          0.63  0.39  0.52  0.28  0.49  0.36  0.60  0.05  0.40  0.21  0.19  0.10  0.08  0.23  0.06  
31          0.63  0.39  0.52  0.28  0.49  0.36  0.60  0.05  0.40  0.21  0.19  0.10  0.08  0.23  0.06  
32          0.63  0.39  0.52  0.28  0.49  0.36  0.60  0.05  0.40  0.21  0.19  0.10  0.08  0.23  0.06  
33          0.63  0.39  0.52  0.28  0.49  0.36  0.60  0.05  0.40  0.21  0.19  0.10  0.08  0.23  0.06  
34          0.66  0.41  0.55  0.29  0.52  0.38  0.63  0.06  0.42  0.22  0.20  0.11  0.08  0.24  0.07  
35          0.66  0.41  0.55  0.29  0.52  0.38  0.63  0.06  0.42  0.22  0.20  0.11  0.08  0.24  0.07  
36          0.66  0.41  0.55  0.29  0.52  0.38  0.63  0.06  0.42  0.22  0.20  0.11  0.08  0.24  0.07  
37          0.66  0.41  0.55  0.29  0.52  0.38  0.63  0.06  0.42  0.22  0.20  0.11  0.08  0.24  0.07  
38          0.66  0.41  0.55  0.29  0.52  0.38  0.63  0.06  0.42  0.22  0.20  0.11  0.08  0.24  0.07  
39          0.66  0.41  0.55  0.29  0.52  0.38  0.63  0.06  0.42  0.22  0.20  0.11  0.08  0.24  0.07  
40          0.66  0.41  0.55  0.29  0.52  0.38  0.63  0.06  0.42  0.22  0.20  0.11  0.08  0.24  0.07  
41          0.66  0.41  0.55  0.29  0.52  0.38  0.63  0.06  0.42  0.22  0.20  0.11  0.08  0.24  0.07  
42          0.66  0.41  0.55  0.29  0.52  0.38  0.63  0.06  0.42  0.22  0.20  0.11  0.08  0.24  0.07  
43          0.66  0.41  0.55  0.29  0.52  0.38  0.63  0.06  0.42  0.22  0.20  0.11  0.08  0.24  0.07  
44          0.66  0.41  0.55  0.29  0.52  0.38  0.63  0.06  0.42  0.22  0.20  0.11  0.08  0.24  0.07  
45          0.66  0.41  0.55  0.29  0.52  0.38  0.63  0.06  0.42  0.22  0.20  0.11  0.08  0.24  0.07  
; # downloads resource k can do at front f in time t if starting or ending flight

param W: 
	F1        F2        F3        :=
1	558.07    279.03    279.03    
2	2232.26   1116.13   1116.13   
3	2232.26   1116.13   1116.13   
4	2232.26   1116.13   1116.13   
5	2232.26   1116.13   1116.13   
6	2232.26   1116.13   1116.13   
7	2232.26   1116.13   1116.13   
8	2232.26   1116.13   1116.13   
9	2232.26   1116.13   1116.13   
10	2232.26   1116.13   1116.13   
11	2232.26   1116.13   1116.13   
12	2232.26   1116.13   1116.13   
13	2232.26   1116.13   1116.13   
14	2232.26   1116.13   1116.13   
15	2232.26   1116.13   1116.13   
16	2232.26   1116.13   1116.13   
17	2232.26   1116.13   1116.13   
18	2232.26   1116.13   1116.13   
19	992.12    496.06    496.06    
20	992.12    496.06    496.06    
21	992.12    496.06    496.06    
22	992.12    496.06    496.06    
23	992.12    496.06    496.06    
24	992.12    496.06    496.06    
25	992.12    496.06    496.06    
26	992.12    496.06    496.06    
27	992.12    496.06    496.06    
28	992.12    496.06    496.06    
29	992.12    496.06    496.06    
30	992.12    496.06    496.06    
31	992.12    496.06    496.06    
32	992.12    496.06    496.06    
33	992.12    496.06    496.06    
34	992.12    496.06    496.06    
35	992.12    496.06    496.06    
36	992.12    496.06    496.06    
37	992.12    496.06    496.06    
38	992.12    496.06    496.06    
39	992.12    496.06    496.06    
40	992.12    496.06    496.06    
41	992.12    496.06    496.06    
42	992.12    496.06    496.06    
43	992.12    496.06    496.06    
44	992.12    496.06    496.06    
45	248.03    124.01    124.01    
; # water needed at front f in time slot t

param M := 100000000; 

param a1:= 10000000;

param a2:= 100;

param a3:= 0.0001;
